c File: flat175_3_0.col
c
c SOURCE: Joseph Culberson (joe@cs.ualberta.ca)
c DESCRIPTION: Quasi-random coloring problem
c              generated with flatness = 0
c                             probability = 0.041
c                             known coloring = 3
c                             random seed = 1012
c              Creation Date:  Wed Feb 24 10:54:50 1999
c Maximum degree = 8 Minimum degree = 0
c COLOR VERIFICATION: Using the permuted order
c under simple greedy yields the specified
c coloring number
c Color = 3 specified partitions = 3
c p edge 175 417
c cnf created by edge2cnf
p cnf 525 1951
-1 -2 0
-1 -3 0
-2 -3 0
1 2 3 0
-4 -5 0
-4 -6 0
-5 -6 0
4 5 6 0
-7 -8 0
-7 -9 0
-8 -9 0
7 8 9 0
-10 -11 0
-10 -12 0
-11 -12 0
10 11 12 0
-13 -14 0
-13 -15 0
-14 -15 0
13 14 15 0
-16 -17 0
-16 -18 0
-17 -18 0
16 17 18 0
-19 -20 0
-19 -21 0
-20 -21 0
19 20 21 0
-22 -23 0
-22 -24 0
-23 -24 0
22 23 24 0
-25 -26 0
-25 -27 0
-26 -27 0
25 26 27 0
-28 -29 0
-28 -30 0
-29 -30 0
28 29 30 0
-31 -32 0
-31 -33 0
-32 -33 0
31 32 33 0
-34 -35 0
-34 -36 0
-35 -36 0
34 35 36 0
-37 -38 0
-37 -39 0
-38 -39 0
37 38 39 0
-40 -41 0
-40 -42 0
-41 -42 0
40 41 42 0
-43 -44 0
-43 -45 0
-44 -45 0
43 44 45 0
-46 -47 0
-46 -48 0
-47 -48 0
46 47 48 0
-49 -50 0
-49 -51 0
-50 -51 0
49 50 51 0
-52 -53 0
-52 -54 0
-53 -54 0
52 53 54 0
-55 -56 0
-55 -57 0
-56 -57 0
55 56 57 0
-58 -59 0
-58 -60 0
-59 -60 0
58 59 60 0
-61 -62 0
-61 -63 0
-62 -63 0
61 62 63 0
-64 -65 0
-64 -66 0
-65 -66 0
64 65 66 0
-67 -68 0
-67 -69 0
-68 -69 0
67 68 69 0
-70 -71 0
-70 -72 0
-71 -72 0
70 71 72 0
-73 -74 0
-73 -75 0
-74 -75 0
73 74 75 0
-76 -77 0
-76 -78 0
-77 -78 0
76 77 78 0
-79 -80 0
-79 -81 0
-80 -81 0
79 80 81 0
-82 -83 0
-82 -84 0
-83 -84 0
82 83 84 0
-85 -86 0
-85 -87 0
-86 -87 0
85 86 87 0
-88 -89 0
-88 -90 0
-89 -90 0
88 89 90 0
-91 -92 0
-91 -93 0
-92 -93 0
91 92 93 0
-94 -95 0
-94 -96 0
-95 -96 0
94 95 96 0
-97 -98 0
-97 -99 0
-98 -99 0
97 98 99 0
-100 -101 0
-100 -102 0
-101 -102 0
100 101 102 0
-103 -104 0
-103 -105 0
-104 -105 0
103 104 105 0
-106 -107 0
-106 -108 0
-107 -108 0
106 107 108 0
-109 -110 0
-109 -111 0
-110 -111 0
109 110 111 0
-112 -113 0
-112 -114 0
-113 -114 0
112 113 114 0
-115 -116 0
-115 -117 0
-116 -117 0
115 116 117 0
-118 -119 0
-118 -120 0
-119 -120 0
118 119 120 0
-121 -122 0
-121 -123 0
-122 -123 0
121 122 123 0
-124 -125 0
-124 -126 0
-125 -126 0
124 125 126 0
-127 -128 0
-127 -129 0
-128 -129 0
127 128 129 0
-130 -131 0
-130 -132 0
-131 -132 0
130 131 132 0
-133 -134 0
-133 -135 0
-134 -135 0
133 134 135 0
-136 -137 0
-136 -138 0
-137 -138 0
136 137 138 0
-139 -140 0
-139 -141 0
-140 -141 0
139 140 141 0
-142 -143 0
-142 -144 0
-143 -144 0
142 143 144 0
-145 -146 0
-145 -147 0
-146 -147 0
145 146 147 0
-148 -149 0
-148 -150 0
-149 -150 0
148 149 150 0
-151 -152 0
-151 -153 0
-152 -153 0
151 152 153 0
-154 -155 0
-154 -156 0
-155 -156 0
154 155 156 0
-157 -158 0
-157 -159 0
-158 -159 0
157 158 159 0
-160 -161 0
-160 -162 0
-161 -162 0
160 161 162 0
-163 -164 0
-163 -165 0
-164 -165 0
163 164 165 0
-166 -167 0
-166 -168 0
-167 -168 0
166 167 168 0
-169 -170 0
-169 -171 0
-170 -171 0
169 170 171 0
-172 -173 0
-172 -174 0
-173 -174 0
172 173 174 0
-175 -176 0
-175 -177 0
-176 -177 0
175 176 177 0
-178 -179 0
-178 -180 0
-179 -180 0
178 179 180 0
-181 -182 0
-181 -183 0
-182 -183 0
181 182 183 0
-184 -185 0
-184 -186 0
-185 -186 0
184 185 186 0
-187 -188 0
-187 -189 0
-188 -189 0
187 188 189 0
-190 -191 0
-190 -192 0
-191 -192 0
190 191 192 0
-193 -194 0
-193 -195 0
-194 -195 0
193 194 195 0
-196 -197 0
-196 -198 0
-197 -198 0
196 197 198 0
-199 -200 0
-199 -201 0
-200 -201 0
199 200 201 0
-202 -203 0
-202 -204 0
-203 -204 0
202 203 204 0
-205 -206 0
-205 -207 0
-206 -207 0
205 206 207 0
-208 -209 0
-208 -210 0
-209 -210 0
208 209 210 0
-211 -212 0
-211 -213 0
-212 -213 0
211 212 213 0
-214 -215 0
-214 -216 0
-215 -216 0
214 215 216 0
-217 -218 0
-217 -219 0
-218 -219 0
217 218 219 0
-220 -221 0
-220 -222 0
-221 -222 0
220 221 222 0
-223 -224 0
-223 -225 0
-224 -225 0
223 224 225 0
-226 -227 0
-226 -228 0
-227 -228 0
226 227 228 0
-229 -230 0
-229 -231 0
-230 -231 0
229 230 231 0
-232 -233 0
-232 -234 0
-233 -234 0
232 233 234 0
-235 -236 0
-235 -237 0
-236 -237 0
235 236 237 0
-238 -239 0
-238 -240 0
-239 -240 0
238 239 240 0
-241 -242 0
-241 -243 0
-242 -243 0
241 242 243 0
-244 -245 0
-244 -246 0
-245 -246 0
244 245 246 0
-247 -248 0
-247 -249 0
-248 -249 0
247 248 249 0
-250 -251 0
-250 -252 0
-251 -252 0
250 251 252 0
-253 -254 0
-253 -255 0
-254 -255 0
253 254 255 0
-256 -257 0
-256 -258 0
-257 -258 0
256 257 258 0
-259 -260 0
-259 -261 0
-260 -261 0
259 260 261 0
-262 -263 0
-262 -264 0
-263 -264 0
262 263 264 0
-265 -266 0
-265 -267 0
-266 -267 0
265 266 267 0
-268 -269 0
-268 -270 0
-269 -270 0
268 269 270 0
-271 -272 0
-271 -273 0
-272 -273 0
271 272 273 0
-274 -275 0
-274 -276 0
-275 -276 0
274 275 276 0
-277 -278 0
-277 -279 0
-278 -279 0
277 278 279 0
-280 -281 0
-280 -282 0
-281 -282 0
280 281 282 0
-283 -284 0
-283 -285 0
-284 -285 0
283 284 285 0
-286 -287 0
-286 -288 0
-287 -288 0
286 287 288 0
-289 -290 0
-289 -291 0
-290 -291 0
289 290 291 0
-292 -293 0
-292 -294 0
-293 -294 0
292 293 294 0
-295 -296 0
-295 -297 0
-296 -297 0
295 296 297 0
-298 -299 0
-298 -300 0
-299 -300 0
298 299 300 0
-301 -302 0
-301 -303 0
-302 -303 0
301 302 303 0
-304 -305 0
-304 -306 0
-305 -306 0
304 305 306 0
-307 -308 0
-307 -309 0
-308 -309 0
307 308 309 0
-310 -311 0
-310 -312 0
-311 -312 0
310 311 312 0
-313 -314 0
-313 -315 0
-314 -315 0
313 314 315 0
-316 -317 0
-316 -318 0
-317 -318 0
316 317 318 0
-319 -320 0
-319 -321 0
-320 -321 0
319 320 321 0
-322 -323 0
-322 -324 0
-323 -324 0
322 323 324 0
-325 -326 0
-325 -327 0
-326 -327 0
325 326 327 0
-328 -329 0
-328 -330 0
-329 -330 0
328 329 330 0
-331 -332 0
-331 -333 0
-332 -333 0
331 332 333 0
-334 -335 0
-334 -336 0
-335 -336 0
334 335 336 0
-337 -338 0
-337 -339 0
-338 -339 0
337 338 339 0
-340 -341 0
-340 -342 0
-341 -342 0
340 341 342 0
-343 -344 0
-343 -345 0
-344 -345 0
343 344 345 0
-346 -347 0
-346 -348 0
-347 -348 0
346 347 348 0
-349 -350 0
-349 -351 0
-350 -351 0
349 350 351 0
-352 -353 0
-352 -354 0
-353 -354 0
352 353 354 0
-355 -356 0
-355 -357 0
-356 -357 0
355 356 357 0
-358 -359 0
-358 -360 0
-359 -360 0
358 359 360 0
-361 -362 0
-361 -363 0
-362 -363 0
361 362 363 0
-364 -365 0
-364 -366 0
-365 -366 0
364 365 366 0
-367 -368 0
-367 -369 0
-368 -369 0
367 368 369 0
-370 -371 0
-370 -372 0
-371 -372 0
370 371 372 0
-373 -374 0
-373 -375 0
-374 -375 0
373 374 375 0
-376 -377 0
-376 -378 0
-377 -378 0
376 377 378 0
-379 -380 0
-379 -381 0
-380 -381 0
379 380 381 0
-382 -383 0
-382 -384 0
-383 -384 0
382 383 384 0
-385 -386 0
-385 -387 0
-386 -387 0
385 386 387 0
-388 -389 0
-388 -390 0
-389 -390 0
388 389 390 0
-391 -392 0
-391 -393 0
-392 -393 0
391 392 393 0
-394 -395 0
-394 -396 0
-395 -396 0
394 395 396 0
-397 -398 0
-397 -399 0
-398 -399 0
397 398 399 0
-400 -401 0
-400 -402 0
-401 -402 0
400 401 402 0
-403 -404 0
-403 -405 0
-404 -405 0
403 404 405 0
-406 -407 0
-406 -408 0
-407 -408 0
406 407 408 0
-409 -410 0
-409 -411 0
-410 -411 0
409 410 411 0
-412 -413 0
-412 -414 0
-413 -414 0
412 413 414 0
-415 -416 0
-415 -417 0
-416 -417 0
415 416 417 0
-418 -419 0
-418 -420 0
-419 -420 0
418 419 420 0
-421 -422 0
-421 -423 0
-422 -423 0
421 422 423 0
-424 -425 0
-424 -426 0
-425 -426 0
424 425 426 0
-427 -428 0
-427 -429 0
-428 -429 0
427 428 429 0
-430 -431 0
-430 -432 0
-431 -432 0
430 431 432 0
-433 -434 0
-433 -435 0
-434 -435 0
433 434 435 0
-436 -437 0
-436 -438 0
-437 -438 0
436 437 438 0
-439 -440 0
-439 -441 0
-440 -441 0
439 440 441 0
-442 -443 0
-442 -444 0
-443 -444 0
442 443 444 0
-445 -446 0
-445 -447 0
-446 -447 0
445 446 447 0
-448 -449 0
-448 -450 0
-449 -450 0
448 449 450 0
-451 -452 0
-451 -453 0
-452 -453 0
451 452 453 0
-454 -455 0
-454 -456 0
-455 -456 0
454 455 456 0
-457 -458 0
-457 -459 0
-458 -459 0
457 458 459 0
-460 -461 0
-460 -462 0
-461 -462 0
460 461 462 0
-463 -464 0
-463 -465 0
-464 -465 0
463 464 465 0
-466 -467 0
-466 -468 0
-467 -468 0
466 467 468 0
-469 -470 0
-469 -471 0
-470 -471 0
469 470 471 0
-472 -473 0
-472 -474 0
-473 -474 0
472 473 474 0
-475 -476 0
-475 -477 0
-476 -477 0
475 476 477 0
-478 -479 0
-478 -480 0
-479 -480 0
478 479 480 0
-481 -482 0
-481 -483 0
-482 -483 0
481 482 483 0
-484 -485 0
-484 -486 0
-485 -486 0
484 485 486 0
-487 -488 0
-487 -489 0
-488 -489 0
487 488 489 0
-490 -491 0
-490 -492 0
-491 -492 0
490 491 492 0
-493 -494 0
-493 -495 0
-494 -495 0
493 494 495 0
-496 -497 0
-496 -498 0
-497 -498 0
496 497 498 0
-499 -500 0
-499 -501 0
-500 -501 0
499 500 501 0
-502 -503 0
-502 -504 0
-503 -504 0
502 503 504 0
-505 -506 0
-505 -507 0
-506 -507 0
505 506 507 0
-508 -509 0
-508 -510 0
-509 -510 0
508 509 510 0
-511 -512 0
-511 -513 0
-512 -513 0
511 512 513 0
-514 -515 0
-514 -516 0
-515 -516 0
514 515 516 0
-517 -518 0
-517 -519 0
-518 -519 0
517 518 519 0
-520 -521 0
-520 -522 0
-521 -522 0
520 521 522 0
-523 -524 0
-523 -525 0
-524 -525 0
523 524 525 0
-64 -1 0
-65 -2 0
-66 -3 0
-133 -1 0
-134 -2 0
-135 -3 0
-196 -1 0
-197 -2 0
-198 -3 0
-316 -1 0
-317 -2 0
-318 -3 0
-430 -1 0
-431 -2 0
-432 -3 0
-64 -4 0
-65 -5 0
-66 -6 0
-235 -4 0
-236 -5 0
-237 -6 0
-280 -4 0
-281 -5 0
-282 -6 0
-334 -4 0
-335 -5 0
-336 -6 0
-424 -4 0
-425 -5 0
-426 -6 0
-28 -10 0
-29 -11 0
-30 -12 0
-178 -10 0
-179 -11 0
-180 -12 0
-238 -10 0
-239 -11 0
-240 -12 0
-301 -10 0
-302 -11 0
-303 -12 0
-361 -10 0
-362 -11 0
-363 -12 0
-478 -10 0
-479 -11 0
-480 -12 0
-106 -13 0
-107 -14 0
-108 -15 0
-232 -13 0
-233 -14 0
-234 -15 0
-241 -13 0
-242 -14 0
-243 -15 0
-307 -13 0
-308 -14 0
-309 -15 0
-469 -13 0
-470 -14 0
-471 -15 0
-493 -13 0
-494 -14 0
-495 -15 0
-169 -16 0
-170 -17 0
-171 -18 0
-295 -16 0
-296 -17 0
-297 -18 0
-355 -16 0
-356 -17 0
-357 -18 0
-379 -16 0
-380 -17 0
-381 -18 0
-142 -19 0
-143 -20 0
-144 -21 0
-154 -19 0
-155 -20 0
-156 -21 0
-160 -19 0
-161 -20 0
-162 -21 0
-307 -19 0
-308 -20 0
-309 -21 0
-454 -19 0
-455 -20 0
-456 -21 0
-124 -22 0
-125 -23 0
-126 -24 0
-346 -22 0
-347 -23 0
-348 -24 0
-349 -22 0
-350 -23 0
-351 -24 0
-352 -22 0
-353 -23 0
-354 -24 0
-355 -22 0
-356 -23 0
-357 -24 0
-286 -25 0
-287 -26 0
-288 -27 0
-370 -25 0
-371 -26 0
-372 -27 0
-295 -28 0
-296 -29 0
-297 -30 0
-406 -28 0
-407 -29 0
-408 -30 0
-301 -31 0
-302 -32 0
-303 -33 0
-418 -31 0
-419 -32 0
-420 -33 0
-55 -34 0
-56 -35 0
-57 -36 0
-85 -34 0
-86 -35 0
-87 -36 0
-97 -34 0
-98 -35 0
-99 -36 0
-193 -34 0
-194 -35 0
-195 -36 0
-244 -34 0
-245 -35 0
-246 -36 0
-121 -37 0
-122 -38 0
-123 -39 0
-286 -37 0
-287 -38 0
-288 -39 0
-343 -37 0
-344 -38 0
-345 -39 0
-445 -37 0
-446 -38 0
-447 -39 0
-103 -40 0
-104 -41 0
-105 -42 0
-106 -40 0
-107 -41 0
-108 -42 0
-139 -40 0
-140 -41 0
-141 -42 0
-280 -40 0
-281 -41 0
-282 -42 0
-349 -40 0
-350 -41 0
-351 -42 0
-79 -43 0
-80 -44 0
-81 -45 0
-391 -43 0
-392 -44 0
-393 -45 0
-505 -43 0
-506 -44 0
-507 -45 0
-148 -46 0
-149 -47 0
-150 -48 0
-190 -46 0
-191 -47 0
-192 -48 0
-406 -46 0
-407 -47 0
-408 -48 0
-493 -46 0
-494 -47 0
-495 -48 0
-52 -49 0
-53 -50 0
-54 -51 0
-151 -49 0
-152 -50 0
-153 -51 0
-448 -49 0
-449 -50 0
-450 -51 0
-493 -49 0
-494 -50 0
-495 -51 0
-514 -49 0
-515 -50 0
-516 -51 0
-145 -52 0
-146 -53 0
-147 -54 0
-283 -52 0
-284 -53 0
-285 -54 0
-334 -52 0
-335 -53 0
-336 -54 0
-400 -52 0
-401 -53 0
-402 -54 0
-424 -52 0
-425 -53 0
-426 -54 0
-145 -55 0
-146 -56 0
-147 -57 0
-286 -55 0
-287 -56 0
-288 -57 0
-433 -55 0
-434 -56 0
-435 -57 0
-205 -58 0
-206 -59 0
-207 -60 0
-235 -58 0
-236 -59 0
-237 -60 0
-268 -58 0
-269 -59 0
-270 -60 0
-325 -58 0
-326 -59 0
-327 -60 0
-415 -58 0
-416 -59 0
-417 -60 0
-442 -58 0
-443 -59 0
-444 -60 0
-67 -61 0
-68 -62 0
-69 -63 0
-88 -61 0
-89 -62 0
-90 -63 0
-127 -61 0
-128 -62 0
-129 -63 0
-160 -61 0
-161 -62 0
-162 -63 0
-385 -61 0
-386 -62 0
-387 -63 0
-487 -61 0
-488 -62 0
-489 -63 0
-268 -64 0
-269 -65 0
-270 -66 0
-331 -64 0
-332 -65 0
-333 -66 0
-376 -64 0
-377 -65 0
-378 -66 0
-472 -64 0
-473 -65 0
-474 -66 0
-505 -64 0
-506 -65 0
-507 -66 0
-508 -64 0
-509 -65 0
-510 -66 0
-142 -67 0
-143 -68 0
-144 -69 0
-175 -67 0
-176 -68 0
-177 -69 0
-265 -67 0
-266 -68 0
-267 -69 0
-271 -67 0
-272 -68 0
-273 -69 0
-307 -67 0
-308 -68 0
-309 -69 0
-319 -67 0
-320 -68 0
-321 -69 0
-91 -70 0
-92 -71 0
-93 -72 0
-220 -70 0
-221 -71 0
-222 -72 0
-262 -70 0
-263 -71 0
-264 -72 0
-385 -70 0
-386 -71 0
-387 -72 0
-91 -73 0
-92 -74 0
-93 -75 0
-397 -73 0
-398 -74 0
-399 -75 0
-523 -73 0
-524 -74 0
-525 -75 0
-79 -76 0
-80 -77 0
-81 -78 0
-115 -76 0
-116 -77 0
-117 -78 0
-268 -76 0
-269 -77 0
-270 -78 0
-316 -76 0
-317 -77 0
-318 -78 0
-472 -76 0
-473 -77 0
-474 -78 0
-508 -76 0
-509 -77 0
-510 -78 0
-172 -79 0
-173 -80 0
-174 -81 0
-280 -79 0
-281 -80 0
-282 -81 0
-301 -79 0
-302 -80 0
-303 -81 0
-310 -79 0
-311 -80 0
-312 -81 0
-391 -79 0
-392 -80 0
-393 -81 0
-109 -82 0
-110 -83 0
-111 -84 0
-253 -82 0
-254 -83 0
-255 -84 0
-271 -82 0
-272 -83 0
-273 -84 0
-412 -82 0
-413 -83 0
-414 -84 0
-436 -82 0
-437 -83 0
-438 -84 0
-229 -85 0
-230 -86 0
-231 -87 0
-304 -85 0
-305 -86 0
-306 -87 0
-316 -85 0
-317 -86 0
-318 -87 0
-436 -85 0
-437 -86 0
-438 -87 0
-271 -88 0
-272 -89 0
-273 -90 0
-331 -88 0
-332 -89 0
-333 -90 0
-427 -88 0
-428 -89 0
-429 -90 0
-118 -91 0
-119 -92 0
-120 -93 0
-475 -91 0
-476 -92 0
-477 -93 0
-352 -94 0
-353 -95 0
-354 -96 0
-394 -94 0
-395 -95 0
-396 -96 0
-298 -97 0
-299 -98 0
-300 -99 0
-337 -97 0
-338 -98 0
-339 -99 0
-490 -97 0
-491 -98 0
-492 -99 0
-118 -100 0
-119 -101 0
-120 -102 0
-121 -100 0
-122 -101 0
-123 -102 0
-244 -100 0
-245 -101 0
-246 -102 0
-388 -100 0
-389 -101 0
-390 -102 0
-499 -100 0
-500 -101 0
-501 -102 0
-517 -100 0
-518 -101 0
-519 -102 0
-310 -103 0
-311 -104 0
-312 -105 0
-313 -103 0
-314 -104 0
-315 -105 0
-373 -103 0
-374 -104 0
-375 -105 0
-472 -103 0
-473 -104 0
-474 -105 0
-496 -103 0
-497 -104 0
-498 -105 0
-112 -106 0
-113 -107 0
-114 -108 0
-235 -106 0
-236 -107 0
-237 -108 0
-358 -106 0
-359 -107 0
-360 -108 0
-376 -106 0
-377 -107 0
-378 -108 0
-400 -106 0
-401 -107 0
-402 -108 0
-469 -106 0
-470 -107 0
-471 -108 0
-145 -109 0
-146 -110 0
-147 -111 0
-253 -109 0
-254 -110 0
-255 -111 0
-199 -112 0
-200 -113 0
-201 -114 0
-322 -112 0
-323 -113 0
-324 -114 0
-130 -115 0
-131 -116 0
-132 -117 0
-133 -115 0
-134 -116 0
-135 -117 0
-160 -115 0
-161 -116 0
-162 -117 0
-373 -115 0
-374 -116 0
-375 -117 0
-511 -115 0
-512 -116 0
-513 -117 0
-163 -118 0
-164 -119 0
-165 -120 0
-433 -118 0
-434 -119 0
-435 -120 0
-457 -118 0
-458 -119 0
-459 -120 0
-478 -118 0
-479 -119 0
-480 -120 0
-505 -118 0
-506 -119 0
-507 -120 0
-175 -121 0
-176 -122 0
-177 -123 0
-208 -121 0
-209 -122 0
-210 -123 0
-274 -121 0
-275 -122 0
-276 -123 0
-490 -121 0
-491 -122 0
-492 -123 0
-436 -124 0
-437 -125 0
-438 -126 0
-460 -124 0
-461 -125 0
-462 -126 0
-481 -124 0
-482 -125 0
-483 -126 0
-157 -127 0
-158 -128 0
-159 -129 0
-472 -127 0
-473 -128 0
-474 -129 0
-397 -130 0
-398 -131 0
-399 -132 0
-409 -130 0
-410 -131 0
-411 -132 0
-436 -130 0
-437 -131 0
-438 -132 0
-496 -130 0
-497 -131 0
-498 -132 0
-160 -133 0
-161 -134 0
-162 -135 0
-385 -133 0
-386 -134 0
-387 -135 0
-427 -133 0
-428 -134 0
-429 -135 0
-451 -133 0
-452 -134 0
-453 -135 0
-154 -136 0
-155 -137 0
-156 -138 0
-157 -136 0
-158 -137 0
-159 -138 0
-349 -136 0
-350 -137 0
-351 -138 0
-355 -136 0
-356 -137 0
-357 -138 0
-448 -136 0
-449 -137 0
-450 -138 0
-172 -139 0
-173 -140 0
-174 -141 0
-205 -139 0
-206 -140 0
-207 -141 0
-226 -139 0
-227 -140 0
-228 -141 0
-364 -139 0
-365 -140 0
-366 -141 0
-490 -142 0
-491 -143 0
-492 -144 0
-412 -145 0
-413 -146 0
-414 -147 0
-493 -145 0
-494 -146 0
-495 -147 0
-370 -148 0
-371 -149 0
-372 -150 0
-469 -148 0
-470 -149 0
-471 -150 0
-259 -151 0
-260 -152 0
-261 -153 0
-379 -151 0
-380 -152 0
-381 -153 0
-463 -151 0
-464 -152 0
-465 -153 0
-319 -154 0
-320 -155 0
-321 -156 0
-328 -154 0
-329 -155 0
-330 -156 0
-331 -154 0
-332 -155 0
-333 -156 0
-388 -154 0
-389 -155 0
-390 -156 0
-409 -154 0
-410 -155 0
-411 -156 0
-514 -154 0
-515 -155 0
-516 -156 0
-184 -157 0
-185 -158 0
-186 -159 0
-238 -157 0
-239 -158 0
-240 -159 0
-376 -157 0
-377 -158 0
-378 -159 0
-403 -157 0
-404 -158 0
-405 -159 0
-340 -160 0
-341 -161 0
-342 -162 0
-331 -163 0
-332 -164 0
-333 -165 0
-352 -163 0
-353 -164 0
-354 -165 0
-484 -163 0
-485 -164 0
-486 -165 0
-262 -166 0
-263 -167 0
-264 -168 0
-184 -169 0
-185 -170 0
-186 -171 0
-223 -172 0
-224 -173 0
-225 -174 0
-235 -172 0
-236 -173 0
-237 -174 0
-385 -172 0
-386 -173 0
-387 -174 0
-412 -172 0
-413 -173 0
-414 -174 0
-406 -175 0
-407 -176 0
-408 -177 0
-454 -175 0
-455 -176 0
-456 -177 0
-490 -175 0
-491 -176 0
-492 -177 0
-199 -178 0
-200 -179 0
-201 -180 0
-514 -178 0
-515 -179 0
-516 -180 0
-328 -181 0
-329 -182 0
-330 -183 0
-268 -184 0
-269 -185 0
-270 -186 0
-271 -184 0
-272 -185 0
-273 -186 0
-283 -184 0
-284 -185 0
-285 -186 0
-445 -184 0
-446 -185 0
-447 -186 0
-223 -187 0
-224 -188 0
-225 -189 0
-241 -187 0
-242 -188 0
-243 -189 0
-430 -187 0
-431 -188 0
-432 -189 0
-517 -187 0
-518 -188 0
-519 -189 0
-355 -190 0
-356 -191 0
-357 -192 0
-514 -190 0
-515 -191 0
-516 -192 0
-310 -193 0
-311 -194 0
-312 -195 0
-361 -193 0
-362 -194 0
-363 -195 0
-460 -193 0
-461 -194 0
-462 -195 0
-346 -196 0
-347 -197 0
-348 -198 0
-442 -196 0
-443 -197 0
-444 -198 0
-448 -196 0
-449 -197 0
-450 -198 0
-451 -196 0
-452 -197 0
-453 -198 0
-475 -196 0
-476 -197 0
-477 -198 0
-256 -199 0
-257 -200 0
-258 -201 0
-265 -199 0
-266 -200 0
-267 -201 0
-337 -199 0
-338 -200 0
-339 -201 0
-385 -199 0
-386 -200 0
-387 -201 0
-382 -202 0
-383 -203 0
-384 -204 0
-388 -202 0
-389 -203 0
-390 -204 0
-235 -205 0
-236 -206 0
-237 -207 0
-340 -205 0
-341 -206 0
-342 -207 0
-436 -205 0
-437 -206 0
-438 -207 0
-451 -205 0
-452 -206 0
-453 -207 0
-448 -208 0
-449 -209 0
-450 -210 0
-508 -208 0
-509 -209 0
-510 -210 0
-337 -211 0
-338 -212 0
-339 -213 0
-343 -211 0
-344 -212 0
-345 -213 0
-247 -214 0
-248 -215 0
-249 -216 0
-517 -214 0
-518 -215 0
-519 -216 0
-361 -217 0
-362 -218 0
-363 -219 0
-364 -217 0
-365 -218 0
-366 -219 0
-391 -217 0
-392 -218 0
-393 -219 0
-283 -220 0
-284 -221 0
-285 -222 0
-370 -220 0
-371 -221 0
-372 -222 0
-262 -223 0
-263 -224 0
-264 -225 0
-307 -223 0
-308 -224 0
-309 -225 0
-352 -223 0
-353 -224 0
-354 -225 0
-391 -223 0
-392 -224 0
-393 -225 0
-499 -223 0
-500 -224 0
-501 -225 0
-289 -226 0
-290 -227 0
-291 -228 0
-373 -226 0
-374 -227 0
-375 -228 0
-244 -229 0
-245 -230 0
-246 -231 0
-328 -229 0
-329 -230 0
-330 -231 0
-400 -229 0
-401 -230 0
-402 -231 0
-334 -232 0
-335 -233 0
-336 -234 0
-439 -232 0
-440 -233 0
-441 -234 0
-496 -232 0
-497 -233 0
-498 -234 0
-523 -232 0
-524 -233 0
-525 -234 0
-409 -238 0
-410 -239 0
-411 -240 0
-451 -238 0
-452 -239 0
-453 -240 0
-454 -238 0
-455 -239 0
-456 -240 0
-517 -238 0
-518 -239 0
-519 -240 0
-403 -241 0
-404 -242 0
-405 -243 0
-442 -241 0
-443 -242 0
-444 -243 0
-451 -241 0
-452 -242 0
-453 -243 0
-487 -241 0
-488 -242 0
-489 -243 0
-403 -244 0
-404 -245 0
-405 -246 0
-259 -247 0
-260 -248 0
-261 -249 0
-382 -247 0
-383 -248 0
-384 -249 0
-397 -247 0
-398 -248 0
-399 -249 0
-433 -247 0
-434 -248 0
-435 -249 0
-520 -247 0
-521 -248 0
-522 -249 0
-331 -250 0
-332 -251 0
-333 -252 0
-385 -253 0
-386 -254 0
-387 -255 0
-415 -253 0
-416 -254 0
-417 -255 0
-523 -253 0
-524 -254 0
-525 -255 0
-406 -256 0
-407 -257 0
-408 -258 0
-439 -256 0
-440 -257 0
-441 -258 0
-469 -256 0
-470 -257 0
-471 -258 0
-292 -262 0
-293 -263 0
-294 -264 0
-421 -262 0
-422 -263 0
-423 -264 0
-430 -262 0
-431 -263 0
-432 -264 0
-442 -262 0
-443 -263 0
-444 -264 0
-268 -265 0
-269 -266 0
-270 -267 0
-343 -265 0
-344 -266 0
-345 -267 0
-436 -265 0
-437 -266 0
-438 -267 0
-286 -268 0
-287 -269 0
-288 -270 0
-322 -271 0
-323 -272 0
-324 -273 0
-379 -271 0
-380 -272 0
-381 -273 0
-433 -271 0
-434 -272 0
-435 -273 0
-454 -271 0
-455 -272 0
-456 -273 0
-280 -274 0
-281 -275 0
-282 -276 0
-457 -274 0
-458 -275 0
-459 -276 0
-475 -274 0
-476 -275 0
-477 -276 0
-523 -274 0
-524 -275 0
-525 -276 0
-304 -277 0
-305 -278 0
-306 -279 0
-325 -277 0
-326 -278 0
-327 -279 0
-358 -277 0
-359 -278 0
-360 -279 0
-478 -277 0
-479 -278 0
-480 -279 0
-484 -277 0
-485 -278 0
-486 -279 0
-319 -280 0
-320 -281 0
-321 -282 0
-358 -280 0
-359 -281 0
-360 -282 0
-406 -280 0
-407 -281 0
-408 -282 0
-349 -283 0
-350 -284 0
-351 -285 0
-442 -283 0
-443 -284 0
-444 -285 0
-484 -283 0
-485 -284 0
-486 -285 0
-415 -286 0
-416 -287 0
-417 -288 0
-379 -289 0
-380 -290 0
-381 -291 0
-505 -289 0
-506 -290 0
-507 -291 0
-316 -292 0
-317 -293 0
-318 -294 0
-385 -292 0
-386 -293 0
-387 -294 0
-451 -292 0
-452 -293 0
-453 -294 0
-334 -295 0
-335 -296 0
-336 -297 0
-358 -298 0
-359 -299 0
-360 -300 0
-382 -298 0
-383 -299 0
-384 -300 0
-496 -298 0
-497 -299 0
-498 -300 0
-499 -298 0
-500 -299 0
-501 -300 0
-319 -301 0
-320 -302 0
-321 -303 0
-325 -307 0
-326 -308 0
-327 -309 0
-379 -307 0
-380 -308 0
-381 -309 0
-397 -307 0
-398 -308 0
-399 -309 0
-367 -313 0
-368 -314 0
-369 -315 0
-415 -319 0
-416 -320 0
-417 -321 0
-421 -319 0
-422 -320 0
-423 -321 0
-487 -319 0
-488 -320 0
-489 -321 0
-337 -322 0
-338 -323 0
-339 -324 0
-373 -322 0
-374 -323 0
-375 -324 0
-403 -328 0
-404 -329 0
-405 -330 0
-460 -328 0
-461 -329 0
-462 -330 0
-337 -331 0
-338 -332 0
-339 -333 0
-445 -331 0
-446 -332 0
-447 -333 0
-478 -334 0
-479 -335 0
-480 -336 0
-511 -334 0
-512 -335 0
-513 -336 0
-430 -337 0
-431 -338 0
-432 -339 0
-382 -340 0
-383 -341 0
-384 -342 0
-382 -343 0
-383 -344 0
-384 -345 0
-436 -346 0
-437 -347 0
-438 -348 0
-517 -346 0
-518 -347 0
-519 -348 0
-439 -349 0
-440 -350 0
-441 -351 0
-490 -349 0
-491 -350 0
-492 -351 0
-409 -352 0
-410 -353 0
-411 -354 0
-445 -352 0
-446 -353 0
-447 -354 0
-430 -355 0
-431 -356 0
-432 -357 0
-430 -361 0
-431 -362 0
-432 -363 0
-436 -361 0
-437 -362 0
-438 -363 0
-463 -361 0
-464 -362 0
-465 -363 0
-439 -364 0
-440 -365 0
-441 -366 0
-445 -364 0
-446 -365 0
-447 -366 0
-454 -364 0
-455 -365 0
-456 -366 0
-475 -364 0
-476 -365 0
-477 -366 0
-373 -367 0
-374 -368 0
-375 -369 0
-391 -367 0
-392 -368 0
-393 -369 0
-415 -367 0
-416 -368 0
-417 -369 0
-424 -367 0
-425 -368 0
-426 -369 0
-460 -367 0
-461 -368 0
-462 -369 0
-391 -370 0
-392 -371 0
-393 -372 0
-430 -379 0
-431 -380 0
-432 -381 0
-523 -385 0
-524 -386 0
-525 -387 0
-442 -388 0
-443 -389 0
-444 -390 0
-487 -388 0
-488 -389 0
-489 -390 0
-445 -391 0
-446 -392 0
-447 -393 0
-472 -394 0
-473 -395 0
-474 -396 0
-484 -394 0
-485 -395 0
-486 -396 0
-439 -397 0
-440 -398 0
-441 -399 0
-448 -397 0
-449 -398 0
-450 -399 0
-448 -400 0
-449 -401 0
-450 -402 0
-505 -400 0
-506 -401 0
-507 -402 0
-418 -403 0
-419 -404 0
-420 -405 0
-412 -406 0
-413 -407 0
-414 -408 0
-511 -406 0
-512 -407 0
-513 -408 0
-508 -409 0
-509 -410 0
-510 -411 0
-448 -412 0
-449 -413 0
-450 -414 0
-520 -412 0
-521 -413 0
-522 -414 0
-478 -415 0
-479 -416 0
-480 -417 0
-490 -418 0
-491 -419 0
-492 -420 0
-520 -418 0
-521 -419 0
-522 -420 0
-466 -421 0
-467 -422 0
-468 -423 0
-490 -424 0
-491 -425 0
-492 -426 0
-481 -430 0
-482 -431 0
-483 -432 0
-454 -439 0
-455 -440 0
-456 -441 0
-514 -439 0
-515 -440 0
-516 -441 0
-523 -457 0
-524 -458 0
-525 -459 0
-475 -460 0
-476 -461 0
-477 -462 0
-484 -460 0
-485 -461 0
-486 -462 0
-478 -466 0
-479 -467 0
-480 -468 0
-493 -469 0
-494 -470 0
-495 -471 0
-514 -469 0
-515 -470 0
-516 -471 0
-520 -469 0
-521 -470 0
-522 -471 0
-487 -472 0
-488 -473 0
-489 -474 0
-499 -472 0
-500 -473 0
-501 -474 0
-514 -472 0
-515 -473 0
-516 -474 0
-514 -487 0
-515 -488 0
-516 -489 0
-505 -496 0
-506 -497 0
-507 -498 0
-517 -496 0
-518 -497 0
-519 -498 0
